#######################
Slurm job id: 17497813_39
Running on machine: p45
Running cmd: /nfs/shared/static-builds/gurobi1003 SOFTMEMLIMIT=125 MIPFocus=3 Presolve=1 TimeLimit=500 seed=18 /nfs/models/miplib2010/k16x240.mps.bz2
#######################
Set parameter TimeLimit to value 500
Set parameter SoftMemLimit to value 125
Set parameter MIPFocus to value 3
Set parameter LogFile to value 1003-MIPFocus3-Presolve1-TimeLimit500-k16x240-8.log
Set parameter Presolve to value 1
Set parameter Seed to value 18
Using license file /opt/gurobi/gurobi.lic

Gurobi Optimizer version 10.0.3 build v10.0.3rc0 (linux64)
Copyright (c) 2023, Gurobi Optimization, LLC

Read MPS format model from file /nfs/models/miplib2010/k16x240.mps.bz2
Reading time = 0.00 seconds
k16x240: 256 rows, 480 columns, 960 nonzeros

CPU model: Intel(R) Xeon(R) E-2388G CPU @ 3.20GHz, instruction set [SSE2|AVX|AVX2|AVX512]
Thread count: 8 physical cores, 16 logical processors, using up to 16 threads

Optimize a model with 256 rows, 480 columns and 960 nonzeros
Model fingerprint: 0x4e80885f
Variable types: 240 continuous, 240 integer (240 binary)
Coefficient statistics:
  Matrix range     [1e+00, 1e+03]
  Objective range  [1e+00, 1e+03]
  Bounds range     [1e+00, 1e+03]
  RHS range        [4e+00, 4e+02]
Found heuristic solution: objective 19474.000000
Presolve time: 0.00s
Presolved: 256 rows, 480 columns, 960 nonzeros
Variable types: 240 continuous, 240 integer (240 binary)

Root relaxation: objective 2.769838e+03, 51 iterations, 0.00 seconds (0.00 work units)

    Nodes    |    Current Node    |     Objective Bounds      |     Work
 Expl Unexpl |  Obj  Depth IntInf | Incumbent    BestBd   Gap | It/Node Time

     0     0 2769.83800    0   14 19474.0000 2769.83800  85.8%     -    0s
H    0     0                    11359.000000 2769.83800  75.6%     -    0s
H    0     0                    11195.000000 2769.83800  75.3%     -    0s
H    0     0                    11074.000000 8116.87580  26.7%     -    0s
H    0     0                    10916.000000 8116.87580  25.6%     -    0s
     0     0 8116.87580    0   26 10916.0000 8116.87580  25.6%     -    0s
H    0     0                    10826.000000 8116.87580  25.0%     -    0s
H    0     0                    10750.000000 8116.87580  24.5%     -    0s
     0     0 8738.52425    0   26 10750.0000 8738.52425  18.7%     -    0s
     0     0 8840.60744    0   29 10750.0000 8840.60744  17.8%     -    0s
     0     0 8858.34365    0   32 10750.0000 8858.34365  17.6%     -    0s
     0     0 8865.48650    0   33 10750.0000 8865.48650  17.5%     -    0s
     0     0 9011.10743    0   32 10750.0000 9011.10743  16.2%     -    0s
H    0     0                    10748.000000 9022.21140  16.1%     -    0s
     0     0 9022.21140    0   35 10748.0000 9022.21140  16.1%     -    0s
     0     0 9023.16099    0   36 10748.0000 9023.16099  16.0%     -    0s
H    0     0                    10746.000000 9023.16099  16.0%     -    0s
     0     0 9116.58799    0   33 10746.0000 9116.58799  15.2%     -    0s
     0     0 9116.58799    0   33 10746.0000 9116.58799  15.2%     -    0s
     0     2 9119.88811    0   33 10746.0000 9119.88811  15.1%     -    0s
H   36    40                    10674.000000 9350.86000  12.4%  90.5    0s
  5230  3539 10438.1641   27   28 10674.0000 10274.9847  3.74%  75.9    5s
 19614 11428 10465.1772   29   28 10674.0000 10463.4959  1.97%  55.8   10s
 47660 11089 10647.9697   34   14 10674.0000 10606.1313  0.64%  40.0   15s

Cutting planes:
  Gomory: 2
  Lift-and-project: 7
  Cover: 2
  Implied bound: 8
  MIR: 125
  Flow cover: 507
  Flow path: 30
  Zero half: 36
  Network: 25
  Relax-and-lift: 3

Explored 65294 nodes (2139015 simplex iterations) in 16.44 seconds (21.87 work units)
Thread count was 16 (of 16 available processors)

Solution count 10: 10674 10746 10748 ... 19474

Optimal solution found (tolerance 1.00e-04)
Best objective 1.067400000000e+04, best bound 1.067304149792e+04, gap 0.0090%
